n_res = 4;
rc = [ 23, 25, 25, 32 ];
n_tasks = 30;
d = [ 6, 4, 5, 6, 1, 10, 3, 7, 7, 8, 4, 1, 10, 3, 2, 6, 8, 5, 4, 5, 3, 4, 3, 6, 8, 9, 7, 10, 10, 9 ];
rr = [| 2, 1, 6, 7, 3, 6, 9, 2, 3, 6, 3, 7, 7, 6, 1, 9, 9, 5, 1, 3, 1, 3, 2, 2, 4, 3, 1, 10, 7, 7
      | 2, 9, 10, 4, 2, 1, 8, 9, 3, 5, 5, 9, 6, 2, 1, 9, 3, 1, 4, 1, 5, 10, 6, 7, 7, 3, 6, 1, 6, 7
      | 2, 1, 6, 9, 2, 5, 1, 8, 2, 3, 2, 3, 7, 5, 5, 1, 8, 1, 3, 4, 4, 10, 3, 4, 1, 9, 4, 1, 10, 4
      | 2, 1, 7, 3, 9, 2, 9, 10, 2, 10, 6, 9, 10, 4, 4, 6, 9, 4, 2, 7, 5, 1, 8, 7, 3, 6, 8, 4, 5, 10 |];
suc = [ { 2 }, 
        { 3 }, 
        { 4 }, 
        { 5 }, 
        { 6 }, 
        { 7 }, 
        { 8 }, 
        { 9 }, 
        { 10 }, 
        { 11 }, 
        { 12 }, 
        { 13 }, 
        { 14 }, 
        { 15 }, 
        { 16 }, 
        { 17 }, 
        { 18 }, 
        { 19 }, 
        { 20 }, 
        { 21 }, 
        { 22 }, 
        { 23 }, 
        { 24 }, 
        { 25 }, 
        { 26 }, 
        { 27 }, 
        { 28 }, 
        { 29 }, 
        { 30 }, 
        {  }]; 
